NAME 
OBJSENSE MAX
ROWS
 N  OBJ
 L  packing[0]
 L  packing[1]
 L  packing[2]
 L  packing[3]
 L  packing[4]
 L  packing[5]
 L  packing[6]
 L  packing[7]
 L  packing[8]
 L  packing[9]
 L  packing[10]
 L  packing[11]
 L  packing[12]
 L  packing[13]
 L  packing[14]
 L  packing[15]
 L  packing[16]
 L  packing[17]
 L  packing[18]
 L  packing[19]
 L  packing[20]
 L  packing[21]
 L  packing[22]
 L  packing[23]
 L  packing[24]
 L  packing[25]
 L  packing[26]
 L  packing[27]
 L  packing[28]
 L  packing[29]
 L  packing[30]
 L  packing[31]
 L  packing[32]
 L  packing[33]
 L  packing[34]
 L  packing[35]
 L  packing[36]
 L  packing[37]
 L  packing[38]
 L  packing[39]
 L  packing[40]
 L  packing[41]
 L  packing[42]
 L  packing[43]
 L  packing[44]
 L  packing[45]
 L  packing[46]
 L  packing[47]
 L  packing[48]
 L  packing[49]
 L  R56     
COLUMNS
    MARKER    'MARKER'                 'INTORG'
    x[1]      OBJ       51
    x[1]      packing[1]  128
    x[1]      packing[2]  177
    x[1]      packing[3]  117
    x[1]      packing[4]  86
    x[1]      packing[5]  168
    x[1]      packing[6]  197
    x[1]      packing[7]  188
    x[1]      packing[8]  191
    x[1]      packing[11]  190
    x[1]      packing[12]  47
    x[1]      packing[13]  94
    x[1]      packing[14]  173
    x[1]      packing[15]  199
    x[1]      packing[17]  42
    x[1]      packing[19]  11
    x[1]      packing[20]  73
    x[1]      packing[21]  37
    x[1]      packing[22]  8
    x[1]      packing[26]  95
    x[1]      packing[27]  99
    x[1]      packing[28]  88
    x[1]      packing[29]  117
    x[1]      packing[30]  49
    x[1]      packing[31]  63
    x[1]      packing[32]  161
    x[1]      packing[33]  35
    x[1]      packing[34]  196
    x[1]      packing[35]  140
    x[1]      packing[36]  127
    x[1]      packing[37]  29
    x[1]      packing[38]  51
    x[1]      packing[39]  120
    x[1]      packing[42]  11
    x[1]      packing[43]  145
    x[1]      packing[44]  75
    x[1]      packing[45]  111
    x[1]      packing[46]  163
    x[1]      packing[47]  132
    x[1]      packing[48]  80
    x[1]      packing[49]  26
    x[2]      OBJ       157
    x[2]      packing[0]  151
    x[2]      packing[2]  73
    x[2]      packing[3]  28
    x[2]      packing[4]  44
    x[2]      packing[5]  133
    x[2]      packing[6]  74
    x[2]      packing[9]  124
    x[2]      packing[10]  161
    x[2]      packing[11]  164
    x[2]      packing[13]  119
    x[2]      packing[16]  194
    x[2]      packing[17]  28
    x[2]      packing[18]  56
    x[2]      packing[21]  46
    x[2]      packing[22]  37
    x[2]      packing[25]  7
    x[2]      packing[26]  47
    x[2]      packing[27]  9
    x[2]      packing[28]  18
    x[2]      packing[29]  197
    x[2]      packing[30]  198
    x[2]      packing[32]  172
    x[2]      packing[33]  74
    x[2]      packing[35]  84
    x[2]      packing[36]  33
    x[2]      packing[37]  135
    x[2]      packing[38]  123
    x[2]      packing[39]  171
    x[2]      packing[40]  32
    x[2]      packing[41]  3
    x[2]      packing[42]  186
    x[2]      packing[43]  105
    x[2]      packing[45]  71
    x[2]      packing[46]  182
    x[2]      packing[48]  103
    x[2]      packing[49]  86
    x[3]      OBJ       117
    x[3]      packing[0]  51
    x[3]      packing[1]  106
    x[3]      packing[2]  97
    x[3]      packing[3]  140
    x[3]      packing[4]  34
    x[3]      packing[5]  91
    x[3]      packing[6]  189
    x[3]      packing[7]  151
    x[3]      packing[8]  155
    x[3]      packing[9]  45
    x[3]      packing[10]  32
    x[3]      packing[11]  115
    x[3]      packing[13]  105
    x[3]      packing[14]  159
    x[3]      packing[15]  85
    x[3]      packing[19]  86
    x[3]      packing[20]  169
    x[3]      packing[21]  161
    x[3]      packing[22]  56
    x[3]      packing[23]  92
    x[3]      packing[24]  19
    x[3]      packing[26]  157
    x[3]      packing[27]  165
    x[3]      packing[28]  26
    x[3]      packing[29]  45
    x[3]      packing[31]  26
    x[3]      packing[34]  64
    x[3]      packing[35]  146
    x[3]      packing[36]  138
    x[3]      packing[37]  197
    x[3]      packing[39]  113
    x[3]      packing[40]  141
    x[3]      packing[42]  79
    x[3]      packing[43]  31
    x[3]      packing[44]  13
    x[3]      packing[45]  15
    x[3]      packing[46]  72
    x[3]      packing[47]  109
    x[3]      packing[48]  156
    x[3]      packing[49]  162
    x[4]      OBJ       121
    x[4]      packing[0]  73
    x[4]      packing[2]  177
    x[4]      packing[3]  102
    x[4]      packing[4]  16
    x[4]      packing[5]  59
    x[4]      packing[7]  160
    x[4]      packing[9]  70
    x[4]      packing[10]  188
    x[4]      packing[11]  150
    x[4]      packing[12]  134
    x[4]      packing[13]  168
    x[4]      packing[14]  71
    x[4]      packing[15]  111
    x[4]      packing[16]  81
    x[4]      packing[19]  67
    x[4]      packing[20]  125
    x[4]      packing[21]  75
    x[4]      packing[22]  15
    x[4]      packing[25]  16
    x[4]      packing[26]  60
    x[4]      packing[27]  142
    x[4]      packing[28]  45
    x[4]      packing[30]  69
    x[4]      packing[31]  156
    x[4]      packing[32]  133
    x[4]      packing[33]  164
    x[4]      packing[34]  99
    x[4]      packing[36]  98
    x[4]      packing[37]  29
    x[4]      packing[38]  24
    x[4]      packing[40]  11
    x[4]      packing[42]  6
    x[4]      packing[43]  61
    x[4]      packing[45]  50
    x[4]      packing[46]  53
    x[4]      packing[48]  36
    x[4]      packing[49]  160
    x[4]      R56       1
    x[5]      OBJ       7
    x[5]      packing[0]  59
    x[5]      packing[2]  104
    x[5]      packing[3]  82
    x[5]      packing[4]  170
    x[5]      packing[5]  41
    x[5]      packing[7]  57
    x[5]      packing[9]  128
    x[5]      packing[10]  14
    x[5]      packing[11]  39
    x[5]      packing[12]  139
    x[5]      packing[13]  84
    x[5]      packing[15]  20
    x[5]      packing[16]  28
    x[5]      packing[17]  47
    x[5]      packing[18]  139
    x[5]      packing[19]  15
    x[5]      packing[22]  19
    x[5]      packing[23]  66
    x[5]      packing[24]  20
    x[5]      packing[25]  168
    x[5]      packing[26]  57
    x[5]      packing[27]  7
    x[5]      packing[28]  115
    x[5]      packing[29]  98
    x[5]      packing[30]  113
    x[5]      packing[31]  137
    x[5]      packing[35]  64
    x[5]      packing[36]  120
    x[5]      packing[37]  32
    x[5]      packing[38]  153
    x[5]      packing[39]  142
    x[5]      packing[40]  180
    x[5]      packing[41]  110
    x[5]      packing[43]  110
    x[5]      packing[44]  166
    x[5]      packing[45]  77
    x[5]      packing[47]  51
    x[5]      packing[49]  69
    x[6]      OBJ       39
    x[6]      packing[0]  101
    x[6]      packing[1]  18
    x[6]      packing[2]  135
    x[6]      packing[3]  49
    x[6]      packing[4]  28
    x[6]      packing[5]  66
    x[6]      packing[6]  165
    x[6]      packing[9]  8
    x[6]      packing[10]  55
    x[6]      packing[13]  112
    x[6]      packing[14]  63
    x[6]      packing[15]  70
    x[6]      packing[17]  43
    x[6]      packing[18]  8
    x[6]      packing[19]  154
    x[6]      packing[20]  69
    x[6]      packing[21]  146
    x[6]      packing[23]  47
    x[6]      packing[24]  184
    x[6]      packing[26]  81
    x[6]      packing[27]  39
    x[6]      packing[30]  5
    x[6]      packing[32]  96
    x[6]      packing[33]  95
    x[6]      packing[34]  25
    x[6]      packing[35]  119
    x[6]      packing[36]  70
    x[6]      packing[37]  168
    x[6]      packing[38]  14
    x[6]      packing[39]  81
    x[6]      packing[40]  43
    x[6]      packing[43]  157
    x[6]      packing[45]  12
    x[6]      packing[47]  124
    x[6]      packing[48]  157
    x[7]      OBJ       63
    x[7]      packing[0]  122
    x[7]      packing[1]  122
    x[7]      packing[2]  139
    x[7]      packing[3]  65
    x[7]      packing[4]  42
    x[7]      packing[5]  188
    x[7]      packing[6]  62
    x[7]      packing[7]  118
    x[7]      packing[8]  18
    x[7]      packing[10]  68
    x[7]      packing[11]  1
    x[7]      packing[13]  52
    x[7]      packing[14]  8
    x[7]      packing[15]  199
    x[7]      packing[16]  57
    x[7]      packing[17]  73
    x[7]      packing[18]  132
    x[7]      packing[19]  10
    x[7]      packing[22]  50
    x[7]      packing[23]  145
    x[7]      packing[24]  163
    x[7]      packing[25]  41
    x[7]      packing[27]  16
    x[7]      packing[28]  50
    x[7]      packing[30]  47
    x[7]      packing[31]  67
    x[7]      packing[32]  192
    x[7]      packing[34]  123
    x[7]      packing[35]  72
    x[7]      packing[36]  32
    x[7]      packing[37]  17
    x[7]      packing[39]  21
    x[7]      packing[40]  43
    x[7]      packing[41]  57
    x[7]      packing[42]  122
    x[7]      packing[43]  125
    x[7]      packing[47]  116
    x[7]      packing[49]  158
    x[8]      OBJ       49
    x[8]      packing[0]  171
    x[8]      packing[1]  100
    x[8]      packing[2]  175
    x[8]      packing[3]  115
    x[8]      packing[4]  82
    x[8]      packing[7]  197
    x[8]      packing[8]  188
    x[8]      packing[9]  30
    x[8]      packing[10]  159
    x[8]      packing[11]  149
    x[8]      packing[12]  26
    x[8]      packing[13]  112
    x[8]      packing[15]  33
    x[8]      packing[16]  24
    x[8]      packing[17]  154
    x[8]      packing[18]  116
    x[8]      packing[19]  176
    x[8]      packing[20]  14
    x[8]      packing[21]  58
    x[8]      packing[23]  12
    x[8]      packing[24]  93
    x[8]      packing[26]  110
    x[8]      packing[27]  179
    x[8]      packing[28]  93
    x[8]      packing[29]  55
    x[8]      packing[30]  165
    x[8]      packing[31]  62
    x[8]      packing[32]  180
    x[8]      packing[33]  126
    x[8]      packing[34]  39
    x[8]      packing[35]  61
    x[8]      packing[37]  197
    x[8]      packing[40]  30
    x[8]      packing[41]  177
    x[8]      packing[42]  186
    x[8]      packing[43]  16
    x[8]      packing[44]  185
    x[8]      packing[45]  31
    x[8]      packing[46]  135
    x[8]      packing[47]  76
    x[8]      packing[48]  149
    x[8]      packing[49]  150
    x[9]      OBJ       56
    x[9]      packing[0]  192
    x[9]      packing[1]  154
    x[9]      packing[2]  184
    x[9]      packing[3]  7
    x[9]      packing[4]  196
    x[9]      packing[5]  47
    x[9]      packing[6]  157
    x[9]      packing[7]  45
    x[9]      packing[8]  174
    x[9]      packing[10]  21
    x[9]      packing[11]  98
    x[9]      packing[12]  91
    x[9]      packing[15]  144
    x[9]      packing[16]  194
    x[9]      packing[17]  41
    x[9]      packing[18]  95
    x[9]      packing[19]  1
    x[9]      packing[20]  186
    x[9]      packing[22]  58
    x[9]      packing[23]  154
    x[9]      packing[25]  121
    x[9]      packing[26]  158
    x[9]      packing[27]  176
    x[9]      packing[28]  153
    x[9]      packing[29]  166
    x[9]      packing[31]  182
    x[9]      packing[32]  144
    x[9]      packing[33]  186
    x[9]      packing[34]  78
    x[9]      packing[36]  36
    x[9]      packing[37]  93
    x[9]      packing[41]  56
    x[9]      packing[42]  115
    x[9]      packing[43]  153
    x[9]      packing[44]  123
    x[9]      packing[45]  104
    x[9]      packing[46]  143
    x[9]      packing[48]  4
    x[9]      packing[49]  197
    x[10]     OBJ       198
    x[10]     packing[0]  79
    x[10]     packing[2]  40
    x[10]     packing[3]  104
    x[10]     packing[5]  76
    x[10]     packing[6]  4
    x[10]     packing[8]  132
    x[10]     packing[11]  160
    x[10]     packing[12]  129
    x[10]     packing[13]  185
    x[10]     packing[14]  10
    x[10]     packing[15]  11
    x[10]     packing[16]  100
    x[10]     packing[17]  196
    x[10]     packing[18]  21
    x[10]     packing[20]  122
    x[10]     packing[21]  188
    x[10]     packing[23]  131
    x[10]     packing[24]  132
    x[10]     packing[26]  25
    x[10]     packing[27]  7
    x[10]     packing[28]  81
    x[10]     packing[29]  28
    x[10]     packing[30]  86
    x[10]     packing[31]  117
    x[10]     packing[34]  23
    x[10]     packing[36]  66
    x[10]     packing[37]  50
    x[10]     packing[40]  47
    x[10]     packing[41]  100
    x[10]     packing[43]  55
    x[10]     packing[44]  88
    x[10]     packing[45]  56
    x[10]     packing[46]  74
    x[10]     packing[47]  186
    x[11]     OBJ       176
    x[11]     packing[0]  188
    x[11]     packing[1]  99
    x[11]     packing[2]  106
    x[11]     packing[3]  122
    x[11]     packing[4]  45
    x[11]     packing[5]  122
    x[11]     packing[8]  33
    x[11]     packing[9]  184
    x[11]     packing[10]  87
    x[11]     packing[11]  164
    x[11]     packing[13]  59
    x[11]     packing[15]  95
    x[11]     packing[17]  99
    x[11]     packing[18]  19
    x[11]     packing[19]  32
    x[11]     packing[20]  195
    x[11]     packing[21]  124
    x[11]     packing[22]  153
    x[11]     packing[23]  3
    x[11]     packing[24]  136
    x[11]     packing[25]  197
    x[11]     packing[26]  82
    x[11]     packing[27]  55
    x[11]     packing[29]  13
    x[11]     packing[30]  107
    x[11]     packing[31]  132
    x[11]     packing[33]  48
    x[11]     packing[34]  25
    x[11]     packing[35]  117
    x[11]     packing[36]  14
    x[11]     packing[37]  147
    x[11]     packing[38]  34
    x[11]     packing[41]  75
    x[11]     packing[42]  119
    x[11]     packing[43]  111
    x[11]     packing[44]  172
    x[11]     packing[45]  99
    x[11]     packing[46]  140
    x[11]     packing[48]  115
    x[11]     packing[49]  164
    x[11]     R56       1
    x[12]     OBJ       156
    x[12]     packing[0]  11
    x[12]     packing[3]  19
    x[12]     packing[4]  149
    x[12]     packing[5]  28
    x[12]     packing[7]  64
    x[12]     packing[8]  36
    x[12]     packing[9]  21
    x[12]     packing[10]  67
    x[12]     packing[14]  58
    x[12]     packing[15]  171
    x[12]     packing[16]  191
    x[12]     packing[17]  108
    x[12]     packing[18]  57
    x[12]     packing[19]  123
    x[12]     packing[20]  12
    x[12]     packing[22]  186
    x[12]     packing[23]  170
    x[12]     packing[24]  52
    x[12]     packing[25]  153
    x[12]     packing[28]  91
    x[12]     packing[30]  30
    x[12]     packing[31]  94
    x[12]     packing[32]  116
    x[12]     packing[33]  10
    x[12]     packing[34]  44
    x[12]     packing[36]  152
    x[12]     packing[37]  44
    x[12]     packing[38]  3
    x[12]     packing[39]  49
    x[12]     packing[40]  124
    x[12]     packing[41]  125
    x[12]     packing[42]  58
    x[12]     packing[43]  120
    x[12]     packing[46]  127
    x[12]     packing[47]  199
    x[12]     packing[48]  130
    x[12]     R56       1
    x[13]     OBJ       30
    x[13]     packing[0]  5
    x[13]     packing[3]  183
    x[13]     packing[5]  136
    x[13]     packing[6]  149
    x[13]     packing[8]  140
    x[13]     packing[9]  6
    x[13]     packing[10]  29
    x[13]     packing[11]  144
    x[13]     packing[12]  107
    x[13]     packing[13]  31
    x[13]     packing[14]  189
    x[13]     packing[16]  77
    x[13]     packing[18]  93
    x[13]     packing[19]  142
    x[13]     packing[21]  153
    x[13]     packing[22]  101
    x[13]     packing[23]  173
    x[13]     packing[24]  31
    x[13]     packing[25]  37
    x[13]     packing[26]  139
    x[13]     packing[27]  69
    x[13]     packing[29]  41
    x[13]     packing[31]  168
    x[13]     packing[32]  139
    x[13]     packing[33]  199
    x[13]     packing[34]  154
    x[13]     packing[35]  81
    x[13]     packing[36]  30
    x[13]     packing[37]  174
    x[13]     packing[38]  73
    x[13]     packing[39]  57
    x[13]     packing[40]  9
    x[13]     packing[42]  71
    x[13]     packing[43]  78
    x[13]     packing[48]  65
    x[13]     packing[49]  85
    x[14]     OBJ       28
    x[14]     packing[0]  47
    x[14]     packing[1]  46
    x[14]     packing[2]  53
    x[14]     packing[3]  97
    x[14]     packing[4]  107
    x[14]     packing[5]  7
    x[14]     packing[7]  33
    x[14]     packing[8]  11
    x[14]     packing[10]  57
    x[14]     packing[12]  127
    x[14]     packing[13]  83
    x[14]     packing[14]  142
    x[14]     packing[15]  14
    x[14]     packing[16]  30
    x[14]     packing[17]  176
    x[14]     packing[18]  85
    x[14]     packing[19]  187
    x[14]     packing[20]  17
    x[14]     packing[21]  3
    x[14]     packing[22]  121
    x[14]     packing[23]  141
    x[14]     packing[26]  16
    x[14]     packing[27]  11
    x[14]     packing[28]  119
    x[14]     packing[29]  14
    x[14]     packing[30]  164
    x[14]     packing[31]  163
    x[14]     packing[32]  84
    x[14]     packing[33]  46
    x[14]     packing[34]  72
    x[14]     packing[35]  132
    x[14]     packing[36]  34
    x[14]     packing[37]  35
    x[14]     packing[38]  125
    x[14]     packing[40]  51
    x[14]     packing[42]  88
    x[14]     packing[45]  25
    x[14]     packing[46]  130
    x[14]     packing[47]  109
    x[14]     packing[48]  146
    x[14]     packing[49]  56
    x[15]     OBJ       175
    x[15]     packing[0]  97
    x[15]     packing[1]  161
    x[15]     packing[2]  132
    x[15]     packing[5]  8
    x[15]     packing[6]  188
    x[15]     packing[7]  123
    x[15]     packing[8]  176
    x[15]     packing[10]  156
    x[15]     packing[12]  137
    x[15]     packing[13]  149
    x[15]     packing[14]  111
    x[15]     packing[15]  50
    x[15]     packing[16]  164
    x[15]     packing[17]  132
    x[15]     packing[18]  95
    x[15]     packing[19]  3
    x[15]     packing[20]  18
    x[15]     packing[21]  21
    x[15]     packing[22]  144
    x[15]     packing[23]  23
    x[15]     packing[25]  137
    x[15]     packing[26]  157
    x[15]     packing[27]  3
    x[15]     packing[28]  18
    x[15]     packing[29]  168
    x[15]     packing[31]  123
    x[15]     packing[32]  126
    x[15]     packing[33]  2
    x[15]     packing[34]  180
    x[15]     packing[35]  27
    x[15]     packing[36]  156
    x[15]     packing[38]  18
    x[15]     packing[39]  89
    x[15]     packing[40]  194
    x[15]     packing[42]  39
    x[15]     packing[43]  2
    x[15]     packing[45]  190
    x[15]     packing[46]  25
    x[15]     packing[47]  113
    x[15]     packing[48]  178
    x[15]     packing[49]  55
    x[15]     R56       1
    x[16]     OBJ       60
    x[16]     packing[0]  13
    x[16]     packing[1]  37
    x[16]     packing[3]  164
    x[16]     packing[4]  170
    x[16]     packing[5]  133
    x[16]     packing[6]  13
    x[16]     packing[7]  93
    x[16]     packing[8]  18
    x[16]     packing[11]  78
    x[16]     packing[12]  35
    x[16]     packing[13]  163
    x[16]     packing[16]  79
    x[16]     packing[17]  42
    x[16]     packing[18]  192
    x[16]     packing[20]  126
    x[16]     packing[21]  178
    x[16]     packing[22]  183
    x[16]     packing[24]  49
    x[16]     packing[26]  145
    x[16]     packing[27]  129
    x[16]     packing[30]  68
    x[16]     packing[31]  183
    x[16]     packing[32]  51
    x[16]     packing[35]  132
    x[16]     packing[36]  55
    x[16]     packing[37]  148
    x[16]     packing[38]  62
    x[16]     packing[39]  96
    x[16]     packing[40]  53
    x[16]     packing[41]  25
    x[16]     packing[45]  122
    x[16]     packing[46]  159
    x[16]     packing[48]  153
    x[16]     packing[49]  66
    x[17]     OBJ       73
    x[17]     packing[0]  56
    x[17]     packing[1]  140
    x[17]     packing[2]  126
    x[17]     packing[3]  92
    x[17]     packing[5]  97
    x[17]     packing[6]  87
    x[17]     packing[7]  144
    x[17]     packing[8]  23
    x[17]     packing[9]  19
    x[17]     packing[11]  27
    x[17]     packing[12]  9
    x[17]     packing[13]  151
    x[17]     packing[14]  66
    x[17]     packing[15]  190
    x[17]     packing[16]  143
    x[17]     packing[17]  12
    x[17]     packing[19]  193
    x[17]     packing[20]  128
    x[17]     packing[22]  79
    x[17]     packing[23]  53
    x[17]     packing[24]  57
    x[17]     packing[26]  134
    x[17]     packing[27]  42
    x[17]     packing[28]  161
    x[17]     packing[30]  147
    x[17]     packing[31]  104
    x[17]     packing[32]  53
    x[17]     packing[33]  155
    x[17]     packing[34]  42
    x[17]     packing[36]  128
    x[17]     packing[37]  65
    x[17]     packing[38]  15
    x[17]     packing[39]  150
    x[17]     packing[40]  28
    x[17]     packing[41]  137
    x[17]     packing[42]  180
    x[17]     packing[45]  21
    x[17]     packing[46]  54
    x[17]     packing[47]  151
    x[17]     packing[48]  27
    x[17]     packing[49]  152
    x[18]     OBJ       16
    x[18]     packing[1]  146
    x[18]     packing[2]  150
    x[18]     packing[4]  24
    x[18]     packing[6]  188
    x[18]     packing[7]  103
    x[18]     packing[8]  129
    x[18]     packing[9]  22
    x[18]     packing[12]  198
    x[18]     packing[13]  35
    x[18]     packing[14]  111
    x[18]     packing[15]  191
    x[18]     packing[16]  37
    x[18]     packing[17]  28
    x[18]     packing[18]  70
    x[18]     packing[19]  173
    x[18]     packing[20]  96
    x[18]     packing[22]  36
    x[18]     packing[23]  63
    x[18]     packing[24]  46
    x[18]     packing[25]  2
    x[18]     packing[26]  167
    x[18]     packing[27]  25
    x[18]     packing[28]  187
    x[18]     packing[29]  80
    x[18]     packing[31]  181
    x[18]     packing[32]  68
    x[18]     packing[34]  149
    x[18]     packing[35]  85
    x[18]     packing[37]  152
    x[18]     packing[38]  53
    x[18]     packing[39]  182
    x[18]     packing[40]  115
    x[18]     packing[41]  89
    x[18]     packing[42]  59
    x[18]     packing[44]  155
    x[18]     packing[45]  15
    x[18]     packing[46]  46
    x[19]     OBJ       199
    x[19]     packing[0]  85
    x[19]     packing[1]  7
    x[19]     packing[3]  54
    x[19]     packing[4]  19
    x[19]     packing[5]  107
    x[19]     packing[6]  157
    x[19]     packing[7]  157
    x[19]     packing[8]  20
    x[19]     packing[9]  67
    x[19]     packing[11]  40
    x[19]     packing[12]  130
    x[19]     packing[15]  156
    x[19]     packing[16]  191
    x[19]     packing[17]  165
    x[19]     packing[18]  61
    x[19]     packing[19]  72
    x[19]     packing[21]  92
    x[19]     packing[22]  190
    x[19]     packing[25]  71
    x[19]     packing[26]  43
    x[19]     packing[27]  181
    x[19]     packing[28]  25
    x[19]     packing[29]  174
    x[19]     packing[30]  198
    x[19]     packing[31]  82
    x[19]     packing[32]  137
    x[19]     packing[34]  124
    x[19]     packing[35]  81
    x[19]     packing[37]  6
    x[19]     packing[40]  166
    x[19]     packing[42]  142
    x[19]     packing[43]  196
    x[19]     packing[44]  83
    x[19]     packing[45]  26
    x[19]     packing[48]  80
    x[19]     packing[49]  197
    x[19]     R56       1
    x[20]     OBJ       80
    x[20]     packing[0]  189
    x[20]     packing[1]  6
    x[20]     packing[2]  136
    x[20]     packing[3]  73
    x[20]     packing[4]  4
    x[20]     packing[5]  43
    x[20]     packing[7]  147
    x[20]     packing[8]  101
    x[20]     packing[9]  23
    x[20]     packing[10]  62
    x[20]     packing[12]  142
    x[20]     packing[14]  76
    x[20]     packing[15]  196
    x[20]     packing[16]  54
    x[20]     packing[17]  39
    x[20]     packing[18]  113
    x[20]     packing[19]  168
    x[20]     packing[20]  196
    x[20]     packing[21]  137
    x[20]     packing[22]  4
    x[20]     packing[23]  67
    x[20]     packing[24]  107
    x[20]     packing[25]  176
    x[20]     packing[26]  54
    x[20]     packing[27]  81
    x[20]     packing[29]  92
    x[20]     packing[30]  153
    x[20]     packing[31]  92
    x[20]     packing[35]  50
    x[20]     packing[36]  64
    x[20]     packing[37]  164
    x[20]     packing[38]  63
    x[20]     packing[39]  43
    x[20]     packing[40]  111
    x[20]     packing[42]  166
    x[20]     packing[44]  166
    x[20]     packing[45]  187
    x[20]     packing[46]  180
    x[20]     packing[47]  2
    x[20]     packing[48]  99
    x[20]     packing[49]  192
    MARKER    'MARKER'                 'INTEND'
RHS
    RHS1      packing[0]  845
    RHS1      packing[1]  635
    RHS1      packing[2]  1002
    RHS1      packing[3]  807
    RHS1      packing[4]  608
    RHS1      packing[5]  775
    RHS1      packing[6]  815
    RHS1      packing[7]  890
    RHS1      packing[8]  773
    RHS1      packing[9]  374
    RHS1      packing[10]  578
    RHS1      packing[11]  760
    RHS1      packing[12]  726
    RHS1      packing[13]  851
    RHS1      packing[14]  619
    RHS1      packing[15]  968
    RHS1      packing[16]  822
    RHS1      packing[17]  713
    RHS1      packing[18]  676
    RHS1      packing[19]  807
    RHS1      packing[20]  773
    RHS1      packing[21]  710
    RHS1      packing[22]  720
    RHS1      packing[23]  670
    RHS1      packing[24]  545
    RHS1      packing[25]  563
    RHS1      packing[26]  864
    RHS1      packing[27]  718
    RHS1      packing[28]  635
    RHS1      packing[29]  644
    RHS1      packing[30]  800
    RHS1      packing[31]  1066
    RHS1      packing[32]  926
    RHS1      packing[33]  570
    RHS1      packing[34]  719
    RHS1      packing[35]  696
    RHS1      packing[36]  677
    RHS1      packing[37]  941
    RHS1      packing[38]  406
    RHS1      packing[39]  657
    RHS1      packing[40]  689
    RHS1      packing[41]  477
    RHS1      packing[42]  814
    RHS1      packing[43]  733
    RHS1      packing[44]  613
    RHS1      packing[45]  606
    RHS1      packing[46]  842
    RHS1      packing[47]  684
    RHS1      packing[48]  839
    RHS1      packing[49]  988
    RHS1      R56       4
BOUNDS
 BV BND1      x[1]    
 BV BND1      x[2]    
 BV BND1      x[3]    
 BV BND1      x[4]    
 BV BND1      x[5]    
 BV BND1      x[6]    
 BV BND1      x[7]    
 BV BND1      x[8]    
 BV BND1      x[9]    
 BV BND1      x[10]   
 BV BND1      x[11]   
 BV BND1      x[12]   
 BV BND1      x[13]   
 BV BND1      x[14]   
 BV BND1      x[15]   
 BV BND1      x[16]   
 BV BND1      x[17]   
 BV BND1      x[18]   
 BV BND1      x[19]   
 BV BND1      x[20]   
ENDATA
